#######################################
### Exact MIP solver for the HHCRSP ###
#######################################
-- Instance file: new-instances/HHCRSP_200_40_99_1.2_R_C.txt
-- Max threads: 4
-- Time limit: 999999 seconds
-- Use initial solution: No
Trivial flow violations prevented generating 373204 variables.
Version identifier: 20.1.0.0 | 2020-11-10 | 9bedb6d68
CPXPARAM_Threads                                 4
CPXPARAM_TimeLimit                               999999
Parallel mode: deterministic, using up to 4 threads for concurrent optimization:
 * Starting dual Simplex on 1 thread...
 * Starting Barrier on 3 threads...
Tried aggregator 1 time.
LP Presolve eliminated 22728 rows and 5506 columns.
Reduced LP has 426618 rows, 404253 columns, and 7818856 nonzeros.
Presolve time = 13.33 sec. (1787.99 ticks)
Symmetry aggregator did 643921 additional substitutions.
Initializing dual steep norms . . .

Iteration log . . .
Iteration:     1   Dual objective     =             0.666667
Iteration:   934   Dual objective     =           199.666667

Dual crossover.
  Dual:  Fixing 897 variables.
      896 DMoves:  Infeasibility  1.91713312e-12  Objective  2.01000000e+02
        0 DMoves:  Infeasibility  6.19587717e-13  Objective  2.01000000e+02
  Dual:  Pushed 24, exchanged 873.
  Primal:  Fixing 603 variables.
      602 PMoves:  Infeasibility  2.77555756e-17  Objective  2.01000000e+02
        0 PMoves:  Infeasibility  8.32667268e-17  Objective  2.01000000e+02
  Primal:  Pushed 502, exchanged 101.

Dual simplex solved model.


Solution status from MIP model:
-- Processing time: 20.709 sec.
-- Memory used: 473.533 MB
-- Best bound: inf
-- Obj value: 201
-- Gap: inf%
-- Total distance: 603
-- Total tardiness: 0
-- Largest tardiness: 0
